NAME: random-75-20009
TYPE: TSP
COMMENT: size=75 seed=20009
DIMENSION: 152
EDGE_WEIGHT_TYPE: EUC_2D
NODE_COORD_SECTION
+0 263 984
-0 263 984
+1 350 941
-1 69 701
+2 283 187
-2 529 214
+3 406 301
-3 240 621
+4 380 923
-4 423 469
+5 336 94
-5 133 214
+6 330 76
-6 411 154
+7 363 605
-7 415 684
+8 211 400
-8 274 848
+9 85 996
-9 848 819
+10 582 675
-10 564 793
+11 73 967
-11 266 625
+12 714 609
-12 617 351
+13 593 996
-13 376 253
+14 218 997
-14 546 610
+15 151 176
-15 431 415
+16 782 376
-16 518 367
+17 991 72
-17 36 987
+18 747 369
-18 232 755
+19 851 530
-19 486 104
+20 774 170
-20 562 84
+21 969 143
-21 988 78
+22 353 669
-22 437 644
+23 664 248
-23 699 325
+24 929 494
-24 906 79
+25 259 859
-25 177 956
+26 708 836
-26 8 906
+27 275 958
-27 76 195
+28 593 741
-28 921 26
+29 466 959
-29 612 685
+30 800 395
-30 526 89
+31 116 18
-31 415 170
+32 561 267
-32 169 876
+33 562 117
-33 710 610
+34 902 111
-34 436 516
+35 181 427
-35 473 805
+36 466 297
-36 221 70
+37 547 276
-37 0 72
+38 768 459
-38 697 630
+39 456 430
-39 759 138
+40 634 350
-40 834 228
+41 293 319
-41 129 469
+42 468 583
-42 306 706
+43 199 127
-43 209 740
+44 189 590
-44 117 353
+45 994 603
-45 106 124
+46 637 483
-46 205 623
+47 19 852
-47 733 131
+48 204 609
-48 44 703
+49 733 79
-49 981 221
+50 301 305
-50 465 452
+51 877 499
-51 728 726
+52 378 825
-52 244 190
+53 237 43
-53 687 506
+54 685 754
-54 369 471
+55 999 724
-55 265 296
+56 625 350
-56 593 370
+57 180 729
-57 573 264
+58 545 961
-58 678 89
+59 799 307
-59 638 762
+60 334 789
-60 657 974
+61 685 414
-61 907 741
+62 336 175
-62 479 743
+63 594 182
-63 117 15
+64 395 380
-64 550 581
+65 723 68
-65 604 775
+66 319 748
-66 620 356
+67 846 892
-67 856 252
+68 200 562
-68 773 472
+69 864 788
-69 506 35
+70 777 486
-70 800 742
+71 235 982
-71 422 583
+72 227 558
-72 503 229
+73 728 532
-73 945 112
+74 627 998
-74 623 990
+75 120 961
-75 458 216
PRECEDENCE_SECTION
+0 -0
+1 -1
+2 -2
+3 -3
+4 -4
+5 -5
+6 -6
+7 -7
+8 -8
+9 -9
+10 -10
+11 -11
+12 -12
+13 -13
+14 -14
+15 -15
+16 -16
+17 -17
+18 -18
+19 -19
+20 -20
+21 -21
+22 -22
+23 -23
+24 -24
+25 -25
+26 -26
+27 -27
+28 -28
+29 -29
+30 -30
+31 -31
+32 -32
+33 -33
+34 -34
+35 -35
+36 -36
+37 -37
+38 -38
+39 -39
+40 -40
+41 -41
+42 -42
+43 -43
+44 -44
+45 -45
+46 -46
+47 -47
+48 -48
+49 -49
+50 -50
+51 -51
+52 -52
+53 -53
+54 -54
+55 -55
+56 -56
+57 -57
+58 -58
+59 -59
+60 -60
+61 -61
+62 -62
+63 -63
+64 -64
+65 -65
+66 -66
+67 -67
+68 -68
+69 -69
+70 -70
+71 -71
+72 -72
+73 -73
+74 -74
+75 -75
EOF
